\ Model TSPMC
\ LP format - for model browsing. Use MPS format to capture full model detail.
Minimize
  50 x[1,1] + 98 x[1,2] + 54 x[1,3] + 6 x[1,4] + 34 x[1,5] + 66 x[2,1]
   + 63 x[2,2] + 52 x[2,3] + 39 x[2,4] + 62 x[2,5] + 46 x[3,1] + 75 x[3,2]
   + 28 x[3,3] + 65 x[3,4] + 18 x[3,5] + 37 x[4,1] + 18 x[4,2] + 97 x[4,3]
   + 13 x[4,4] + 80 x[4,5] + 33 x[5,1] + 69 x[5,2] + 91 x[5,3] + 78 x[5,4]
   + 19 x[5,5]
Subject To
 out_vertex_constr[0]: x[0,0] + x[0,1] + x[0,2] + x[0,3] + x[0,4] + x[0,5]
   = 1
 out_vertex_constr[1]: x[1,0] + x[1,1] + x[1,2] + x[1,3] + x[1,4] + x[1,5]
   = 1
 out_vertex_constr[2]: x[2,0] + x[2,1] + x[2,2] + x[2,3] + x[2,4] + x[2,5]
   = 1
 out_vertex_constr[3]: x[3,0] + x[3,1] + x[3,2] + x[3,3] + x[3,4] + x[3,5]
   = 1
 out_vertex_constr[4]: x[4,0] + x[4,1] + x[4,2] + x[4,3] + x[4,4] + x[4,5]
   = 1
 out_vertex_constr[5]: x[5,0] + x[5,1] + x[5,2] + x[5,3] + x[5,4] + x[5,5]
   = 1
 in_vertex_constr[0]: x[0,0] + x[1,0] + x[2,0] + x[3,0] + x[4,0] + x[5,0]
   = 1
 in_vertex_constr[1]: x[0,1] + x[1,1] + x[2,1] + x[3,1] + x[4,1] + x[5,1]
   = 1
 in_vertex_constr[2]: x[0,2] + x[1,2] + x[2,2] + x[3,2] + x[4,2] + x[5,2]
   = 1
 in_vertex_constr[3]: x[0,3] + x[1,3] + x[2,3] + x[3,3] + x[4,3] + x[5,3]
   = 1
 in_vertex_constr[4]: x[0,4] + x[1,4] + x[2,4] + x[3,4] + x[4,4] + x[5,4]
   = 1
 in_vertex_constr[5]: x[0,5] + x[1,5] + x[2,5] + x[3,5] + x[4,5] + x[5,5]
   = 1
 sub_tour_constr_[0,_1]: x[0,0] + x[0,1] + x[1,0] + x[1,1] <= 1
 sub_tour_constr_[0,_2]: x[0,0] + x[0,2] + x[2,0] + x[2,2] <= 1
 sub_tour_constr_[0,_3]: x[0,0] + x[0,3] + x[3,0] + x[3,3] <= 1
 sub_tour_constr_[0,_4]: x[0,0] + x[0,4] + x[4,0] + x[4,4] <= 1
 sub_tour_constr_[0,_5]: x[0,0] + x[0,5] + x[5,0] + x[5,5] <= 1
 sub_tour_constr_[1,_2]: x[1,1] + x[1,2] + x[2,1] + x[2,2] <= 1
 sub_tour_constr_[1,_3]: x[1,1] + x[1,3] + x[3,1] + x[3,3] <= 1
 sub_tour_constr_[1,_4]: x[1,1] + x[1,4] + x[4,1] + x[4,4] <= 1
 sub_tour_constr_[1,_5]: x[1,1] + x[1,5] + x[5,1] + x[5,5] <= 1
 sub_tour_constr_[2,_3]: x[2,2] + x[2,3] + x[3,2] + x[3,3] <= 1
 sub_tour_constr_[2,_4]: x[2,2] + x[2,4] + x[4,2] + x[4,4] <= 1
 sub_tour_constr_[2,_5]: x[2,2] + x[2,5] + x[5,2] + x[5,5] <= 1
 sub_tour_constr_[3,_4]: x[3,3] + x[3,4] + x[4,3] + x[4,4] <= 1
 sub_tour_constr_[3,_5]: x[3,3] + x[3,5] + x[5,3] + x[5,5] <= 1
 sub_tour_constr_[4,_5]: x[4,4] + x[4,5] + x[5,4] + x[5,5] <= 1
 sub_tour_constr_[0,_1,_2]: x[0,0] + x[0,1] + x[0,2] + x[1,0] + x[1,1]
   + x[1,2] + x[2,0] + x[2,1] + x[2,2] <= 2
 sub_tour_constr_[0,_1,_3]: x[0,0] + x[0,1] + x[0,3] + x[1,0] + x[1,1]
   + x[1,3] + x[3,0] + x[3,1] + x[3,3] <= 2
 sub_tour_constr_[0,_1,_4]: x[0,0] + x[0,1] + x[0,4] + x[1,0] + x[1,1]
   + x[1,4] + x[4,0] + x[4,1] + x[4,4] <= 2
 sub_tour_constr_[0,_1,_5]: x[0,0] + x[0,1] + x[0,5] + x[1,0] + x[1,1]
   + x[1,5] + x[5,0] + x[5,1] + x[5,5] <= 2
 sub_tour_constr_[0,_2,_3]: x[0,0] + x[0,2] + x[0,3] + x[2,0] + x[2,2]
   + x[2,3] + x[3,0] + x[3,2] + x[3,3] <= 2
 sub_tour_constr_[0,_2,_4]: x[0,0] + x[0,2] + x[0,4] + x[2,0] + x[2,2]
   + x[2,4] + x[4,0] + x[4,2] + x[4,4] <= 2
 sub_tour_constr_[0,_2,_5]: x[0,0] + x[0,2] + x[0,5] + x[2,0] + x[2,2]
   + x[2,5] + x[5,0] + x[5,2] + x[5,5] <= 2
 sub_tour_constr_[0,_3,_4]: x[0,0] + x[0,3] + x[0,4] + x[3,0] + x[3,3]
   + x[3,4] + x[4,0] + x[4,3] + x[4,4] <= 2
 sub_tour_constr_[0,_3,_5]: x[0,0] + x[0,3] + x[0,5] + x[3,0] + x[3,3]
   + x[3,5] + x[5,0] + x[5,3] + x[5,5] <= 2
 sub_tour_constr_[0,_4,_5]: x[0,0] + x[0,4] + x[0,5] + x[4,0] + x[4,4]
   + x[4,5] + x[5,0] + x[5,4] + x[5,5] <= 2
 sub_tour_constr_[1,_2,_3]: x[1,1] + x[1,2] + x[1,3] + x[2,1] + x[2,2]
   + x[2,3] + x[3,1] + x[3,2] + x[3,3] <= 2
 sub_tour_constr_[1,_2,_4]: x[1,1] + x[1,2] + x[1,4] + x[2,1] + x[2,2]
   + x[2,4] + x[4,1] + x[4,2] + x[4,4] <= 2
 sub_tour_constr_[1,_2,_5]: x[1,1] + x[1,2] + x[1,5] + x[2,1] + x[2,2]
   + x[2,5] + x[5,1] + x[5,2] + x[5,5] <= 2
 sub_tour_constr_[1,_3,_4]: x[1,1] + x[1,3] + x[1,4] + x[3,1] + x[3,3]
   + x[3,4] + x[4,1] + x[4,3] + x[4,4] <= 2
 sub_tour_constr_[1,_3,_5]: x[1,1] + x[1,3] + x[1,5] + x[3,1] + x[3,3]
   + x[3,5] + x[5,1] + x[5,3] + x[5,5] <= 2
 sub_tour_constr_[1,_4,_5]: x[1,1] + x[1,4] + x[1,5] + x[4,1] + x[4,4]
   + x[4,5] + x[5,1] + x[5,4] + x[5,5] <= 2
 sub_tour_constr_[2,_3,_4]: x[2,2] + x[2,3] + x[2,4] + x[3,2] + x[3,3]
   + x[3,4] + x[4,2] + x[4,3] + x[4,4] <= 2
 sub_tour_constr_[2,_3,_5]: x[2,2] + x[2,3] + x[2,5] + x[3,2] + x[3,3]
   + x[3,5] + x[5,2] + x[5,3] + x[5,5] <= 2
 sub_tour_constr_[2,_4,_5]: x[2,2] + x[2,4] + x[2,5] + x[4,2] + x[4,4]
   + x[4,5] + x[5,2] + x[5,4] + x[5,5] <= 2
 sub_tour_constr_[3,_4,_5]: x[3,3] + x[3,4] + x[3,5] + x[4,3] + x[4,4]
   + x[4,5] + x[5,3] + x[5,4] + x[5,5] <= 2
 sub_tour_constr_[0,_1,_2,_3]: x[0,0] + x[0,1] + x[0,2] + x[0,3] + x[1,0]
   + x[1,1] + x[1,2] + x[1,3] + x[2,0] + x[2,1] + x[2,2] + x[2,3] + x[3,0]
   + x[3,1] + x[3,2] + x[3,3] <= 3
 sub_tour_constr_[0,_1,_2,_4]: x[0,0] + x[0,1] + x[0,2] + x[0,4] + x[1,0]
   + x[1,1] + x[1,2] + x[1,4] + x[2,0] + x[2,1] + x[2,2] + x[2,4] + x[4,0]
   + x[4,1] + x[4,2] + x[4,4] <= 3
 sub_tour_constr_[0,_1,_2,_5]: x[0,0] + x[0,1] + x[0,2] + x[0,5] + x[1,0]
   + x[1,1] + x[1,2] + x[1,5] + x[2,0] + x[2,1] + x[2,2] + x[2,5] + x[5,0]
   + x[5,1] + x[5,2] + x[5,5] <= 3
 sub_tour_constr_[0,_1,_3,_4]: x[0,0] + x[0,1] + x[0,3] + x[0,4] + x[1,0]
   + x[1,1] + x[1,3] + x[1,4] + x[3,0] + x[3,1] + x[3,3] + x[3,4] + x[4,0]
   + x[4,1] + x[4,3] + x[4,4] <= 3
 sub_tour_constr_[0,_1,_3,_5]: x[0,0] + x[0,1] + x[0,3] + x[0,5] + x[1,0]
   + x[1,1] + x[1,3] + x[1,5] + x[3,0] + x[3,1] + x[3,3] + x[3,5] + x[5,0]
   + x[5,1] + x[5,3] + x[5,5] <= 3
 sub_tour_constr_[0,_1,_4,_5]: x[0,0] + x[0,1] + x[0,4] + x[0,5] + x[1,0]
   + x[1,1] + x[1,4] + x[1,5] + x[4,0] + x[4,1] + x[4,4] + x[4,5] + x[5,0]
   + x[5,1] + x[5,4] + x[5,5] <= 3
 sub_tour_constr_[0,_2,_3,_4]: x[0,0] + x[0,2] + x[0,3] + x[0,4] + x[2,0]
   + x[2,2] + x[2,3] + x[2,4] + x[3,0] + x[3,2] + x[3,3] + x[3,4] + x[4,0]
   + x[4,2] + x[4,3] + x[4,4] <= 3
 sub_tour_constr_[0,_2,_3,_5]: x[0,0] + x[0,2] + x[0,3] + x[0,5] + x[2,0]
   + x[2,2] + x[2,3] + x[2,5] + x[3,0] + x[3,2] + x[3,3] + x[3,5] + x[5,0]
   + x[5,2] + x[5,3] + x[5,5] <= 3
 sub_tour_constr_[0,_2,_4,_5]: x[0,0] + x[0,2] + x[0,4] + x[0,5] + x[2,0]
   + x[2,2] + x[2,4] + x[2,5] + x[4,0] + x[4,2] + x[4,4] + x[4,5] + x[5,0]
   + x[5,2] + x[5,4] + x[5,5] <= 3
 sub_tour_constr_[0,_3,_4,_5]: x[0,0] + x[0,3] + x[0,4] + x[0,5] + x[3,0]
   + x[3,3] + x[3,4] + x[3,5] + x[4,0] + x[4,3] + x[4,4] + x[4,5] + x[5,0]
   + x[5,3] + x[5,4] + x[5,5] <= 3
 sub_tour_constr_[1,_2,_3,_4]: x[1,1] + x[1,2] + x[1,3] + x[1,4] + x[2,1]
   + x[2,2] + x[2,3] + x[2,4] + x[3,1] + x[3,2] + x[3,3] + x[3,4] + x[4,1]
   + x[4,2] + x[4,3] + x[4,4] <= 3
 sub_tour_constr_[1,_2,_3,_5]: x[1,1] + x[1,2] + x[1,3] + x[1,5] + x[2,1]
   + x[2,2] + x[2,3] + x[2,5] + x[3,1] + x[3,2] + x[3,3] + x[3,5] + x[5,1]
   + x[5,2] + x[5,3] + x[5,5] <= 3
 sub_tour_constr_[1,_2,_4,_5]: x[1,1] + x[1,2] + x[1,4] + x[1,5] + x[2,1]
   + x[2,2] + x[2,4] + x[2,5] + x[4,1] + x[4,2] + x[4,4] + x[4,5] + x[5,1]
   + x[5,2] + x[5,4] + x[5,5] <= 3
 sub_tour_constr_[1,_3,_4,_5]: x[1,1] + x[1,3] + x[1,4] + x[1,5] + x[3,1]
   + x[3,3] + x[3,4] + x[3,5] + x[4,1] + x[4,3] + x[4,4] + x[4,5] + x[5,1]
   + x[5,3] + x[5,4] + x[5,5] <= 3
 sub_tour_constr_[2,_3,_4,_5]: x[2,2] + x[2,3] + x[2,4] + x[2,5] + x[3,2]
   + x[3,3] + x[3,4] + x[3,5] + x[4,2] + x[4,3] + x[4,4] + x[4,5] + x[5,2]
   + x[5,3] + x[5,4] + x[5,5] <= 3
 sub_tour_constr_[0,_1,_2,_3,_4]: x[0,0] + x[0,1] + x[0,2] + x[0,3]
   + x[0,4] + x[1,0] + x[1,1] + x[1,2] + x[1,3] + x[1,4] + x[2,0] + x[2,1]
   + x[2,2] + x[2,3] + x[2,4] + x[3,0] + x[3,1] + x[3,2] + x[3,3] + x[3,4]
   + x[4,0] + x[4,1] + x[4,2] + x[4,3] + x[4,4] <= 4
 sub_tour_constr_[0,_1,_2,_3,_5]: x[0,0] + x[0,1] + x[0,2] + x[0,3]
   + x[0,5] + x[1,0] + x[1,1] + x[1,2] + x[1,3] + x[1,5] + x[2,0] + x[2,1]
   + x[2,2] + x[2,3] + x[2,5] + x[3,0] + x[3,1] + x[3,2] + x[3,3] + x[3,5]
   + x[5,0] + x[5,1] + x[5,2] + x[5,3] + x[5,5] <= 4
 sub_tour_constr_[0,_1,_2,_4,_5]: x[0,0] + x[0,1] + x[0,2] + x[0,4]
   + x[0,5] + x[1,0] + x[1,1] + x[1,2] + x[1,4] + x[1,5] + x[2,0] + x[2,1]
   + x[2,2] + x[2,4] + x[2,5] + x[4,0] + x[4,1] + x[4,2] + x[4,4] + x[4,5]
   + x[5,0] + x[5,1] + x[5,2] + x[5,4] + x[5,5] <= 4
 sub_tour_constr_[0,_1,_3,_4,_5]: x[0,0] + x[0,1] + x[0,3] + x[0,4]
   + x[0,5] + x[1,0] + x[1,1] + x[1,3] + x[1,4] + x[1,5] + x[3,0] + x[3,1]
   + x[3,3] + x[3,4] + x[3,5] + x[4,0] + x[4,1] + x[4,3] + x[4,4] + x[4,5]
   + x[5,0] + x[5,1] + x[5,3] + x[5,4] + x[5,5] <= 4
 sub_tour_constr_[0,_2,_3,_4,_5]: x[0,0] + x[0,2] + x[0,3] + x[0,4]
   + x[0,5] + x[2,0] + x[2,2] + x[2,3] + x[2,4] + x[2,5] + x[3,0] + x[3,2]
   + x[3,3] + x[3,4] + x[3,5] + x[4,0] + x[4,2] + x[4,3] + x[4,4] + x[4,5]
   + x[5,0] + x[5,2] + x[5,3] + x[5,4] + x[5,5] <= 4
 sub_tour_constr_[1,_2,_3,_4,_5]: x[1,1] + x[1,2] + x[1,3] + x[1,4]
   + x[1,5] + x[2,1] + x[2,2] + x[2,3] + x[2,4] + x[2,5] + x[3,1] + x[3,2]
   + x[3,3] + x[3,4] + x[3,5] + x[4,1] + x[4,2] + x[4,3] + x[4,4] + x[4,5]
   + x[5,1] + x[5,2] + x[5,3] + x[5,4] + x[5,5] <= 4
 capacity_constr[0]: u[0,0,0] + u[0,1,0] + u[1,0,0] + u[1,1,0] + u[2,0,0]
   + u[2,1,0] + u[3,0,0] + u[3,1,0] + u[4,0,0] + u[4,1,0] + u[5,0,0]
   + u[5,1,0] <= 800
 capacity_constr[1]: u[0,0,1] + u[0,1,1] + u[1,0,1] + u[1,1,1] + u[2,0,1]
   + u[2,1,1] + u[3,0,1] + u[3,1,1] + u[4,0,1] + u[4,1,1] + u[5,0,1]
   + u[5,1,1] <= 800
 capacity_constr[2]: u[0,0,2] + u[0,1,2] + u[1,0,2] + u[1,1,2] + u[2,0,2]
   + u[2,1,2] + u[3,0,2] + u[3,1,2] + u[4,0,2] + u[4,1,2] + u[5,0,2]
   + u[5,1,2] <= 800
 capacity_constr[3]: u[0,0,3] + u[0,1,3] + u[1,0,3] + u[1,1,3] + u[2,0,3]
   + u[2,1,3] + u[3,0,3] + u[3,1,3] + u[4,0,3] + u[4,1,3] + u[5,0,3]
   + u[5,1,3] <= 800
 capacity_constr[4]: u[0,0,4] + u[0,1,4] + u[1,0,4] + u[1,1,4] + u[2,0,4]
   + u[2,1,4] + u[3,0,4] + u[3,1,4] + u[4,0,4] + u[4,1,4] + u[5,0,4]
   + u[5,1,4] <= 800
 capacity_constr[5]: u[0,0,5] + u[0,1,5] + u[1,0,5] + u[1,1,5] + u[2,0,5]
   + u[2,1,5] + u[3,0,5] + u[3,1,5] + u[4,0,5] + u[4,1,5] + u[5,0,5]
   + u[5,1,5] <= 800
 demand_constr[0,0]: u[0,0,0] + u[0,0,1] + u[0,0,2] + u[0,0,3] + u[0,0,4]
   + u[0,0,5] = 0
 demand_constr[0,1]: u[0,1,0] + u[0,1,1] + u[0,1,2] + u[0,1,3] + u[0,1,4]
   + u[0,1,5] = 0
 demand_constr[1,0]: u[1,0,0] + u[1,0,1] + u[1,0,2] + u[1,0,3] + u[1,0,4]
   + u[1,0,5] = 400
 demand_constr[1,1]: u[1,1,0] + u[1,1,1] + u[1,1,2] + u[1,1,3] + u[1,1,4]
   + u[1,1,5] = 0
 demand_constr[2,0]: u[2,0,0] + u[2,0,1] + u[2,0,2] + u[2,0,3] + u[2,0,4]
   + u[2,0,5] = 800
 demand_constr[2,1]: u[2,1,0] + u[2,1,1] + u[2,1,2] + u[2,1,3] + u[2,1,4]
   + u[2,1,5] = 0
 demand_constr[3,0]: u[3,0,0] + u[3,0,1] + u[3,0,2] + u[3,0,3] + u[3,0,4]
   + u[3,0,5] = 400
 demand_constr[3,1]: u[3,1,0] + u[3,1,1] + u[3,1,2] + u[3,1,3] + u[3,1,4]
   + u[3,1,5] = 400
 demand_constr[4,0]: u[4,0,0] + u[4,0,1] + u[4,0,2] + u[4,0,3] + u[4,0,4]
   + u[4,0,5] = 0
 demand_constr[4,1]: u[4,1,0] + u[4,1,1] + u[4,1,2] + u[4,1,3] + u[4,1,4]
   + u[4,1,5] = 400
 demand_constr[5,0]: u[5,0,0] + u[5,0,1] + u[5,0,2] + u[5,0,3] + u[5,0,4]
   + u[5,0,5] = 400
 demand_constr[5,1]: u[5,1,0] + u[5,1,1] + u[5,1,2] + u[5,1,3] + u[5,1,4]
   + u[5,1,5] = 800
 compartment_product_constr[0]: y[0,0] + y[1,0] <= 1
 compartment_product_constr[1]: y[0,1] + y[1,1] <= 1
 compartment_product_constr[2]: y[0,2] + y[1,2] <= 1
 compartment_product_constr[3]: y[0,3] + y[1,3] <= 1
 compartment_product_constr[4]: y[0,4] + y[1,4] <= 1
 compartment_product_constr[5]: y[0,5] + y[1,5] <= 1
 product_compartment_constr[0]: y[0,0] + y[0,1] + y[0,2] + y[0,3] + y[0,4]
   + y[0,5] >= 1
 product_compartment_constr[1]: y[1,0] + y[1,1] + y[1,2] + y[1,3] + y[1,4]
   + y[1,5] >= 1
 compartment_capability_constr[0,0]: y[0,0] <= 1
 compartment_capability_constr[0,1]: y[0,1] <= 1
 compartment_capability_constr[0,2]: y[0,2] <= 1
 compartment_capability_constr[0,3]: y[0,3] <= 1
 compartment_capability_constr[0,4]: y[0,4] <= 0
 compartment_capability_constr[0,5]: y[0,5] <= 0
 compartment_capability_constr[1,0]: y[1,0] <= 0
 compartment_capability_constr[1,1]: y[1,1] <= 0
 compartment_capability_constr[1,2]: y[1,2] <= 0
 compartment_capability_constr[1,3]: y[1,3] <= 0
 compartment_capability_constr[1,4]: y[1,4] <= 1
 compartment_capability_constr[1,5]: y[1,5] <= 1
 share_demand_constr[0,0,0]: u[0,0,0] <= 0
 share_demand_constr[0,0,1]: u[0,0,1] <= 0
 share_demand_constr[0,0,2]: u[0,0,2] <= 0
 share_demand_constr[0,0,3]: u[0,0,3] <= 0
 share_demand_constr[0,0,4]: u[0,0,4] <= 0
 share_demand_constr[0,0,5]: u[0,0,5] <= 0
 share_demand_constr[0,1,0]: u[0,1,0] <= 0
 share_demand_constr[0,1,1]: u[0,1,1] <= 0
 share_demand_constr[0,1,2]: u[0,1,2] <= 0
 share_demand_constr[0,1,3]: u[0,1,3] <= 0
 share_demand_constr[0,1,4]: u[0,1,4] <= 0
 share_demand_constr[0,1,5]: u[0,1,5] <= 0
 share_demand_constr[1,0,0]: - 400 y[0,0] + u[1,0,0] <= 0
 share_demand_constr[1,0,1]: - 400 y[0,1] + u[1,0,1] <= 0
 share_demand_constr[1,0,2]: - 400 y[0,2] + u[1,0,2] <= 0
 share_demand_constr[1,0,3]: - 400 y[0,3] + u[1,0,3] <= 0
 share_demand_constr[1,0,4]: - 400 y[0,4] + u[1,0,4] <= 0
 share_demand_constr[1,0,5]: - 400 y[0,5] + u[1,0,5] <= 0
 share_demand_constr[1,1,0]: u[1,1,0] <= 0
 share_demand_constr[1,1,1]: u[1,1,1] <= 0
 share_demand_constr[1,1,2]: u[1,1,2] <= 0
 share_demand_constr[1,1,3]: u[1,1,3] <= 0
 share_demand_constr[1,1,4]: u[1,1,4] <= 0
 share_demand_constr[1,1,5]: u[1,1,5] <= 0
 share_demand_constr[2,0,0]: - 800 y[0,0] + u[2,0,0] <= 0
 share_demand_constr[2,0,1]: - 800 y[0,1] + u[2,0,1] <= 0
 share_demand_constr[2,0,2]: - 800 y[0,2] + u[2,0,2] <= 0
 share_demand_constr[2,0,3]: - 800 y[0,3] + u[2,0,3] <= 0
 share_demand_constr[2,0,4]: - 800 y[0,4] + u[2,0,4] <= 0
 share_demand_constr[2,0,5]: - 800 y[0,5] + u[2,0,5] <= 0
 share_demand_constr[2,1,0]: u[2,1,0] <= 0
 share_demand_constr[2,1,1]: u[2,1,1] <= 0
 share_demand_constr[2,1,2]: u[2,1,2] <= 0
 share_demand_constr[2,1,3]: u[2,1,3] <= 0
 share_demand_constr[2,1,4]: u[2,1,4] <= 0
 share_demand_constr[2,1,5]: u[2,1,5] <= 0
 share_demand_constr[3,0,0]: - 400 y[0,0] + u[3,0,0] <= 0
 share_demand_constr[3,0,1]: - 400 y[0,1] + u[3,0,1] <= 0
 share_demand_constr[3,0,2]: - 400 y[0,2] + u[3,0,2] <= 0
 share_demand_constr[3,0,3]: - 400 y[0,3] + u[3,0,3] <= 0
 share_demand_constr[3,0,4]: - 400 y[0,4] + u[3,0,4] <= 0
 share_demand_constr[3,0,5]: - 400 y[0,5] + u[3,0,5] <= 0
 share_demand_constr[3,1,0]: - 400 y[1,0] + u[3,1,0] <= 0
 share_demand_constr[3,1,1]: - 400 y[1,1] + u[3,1,1] <= 0
 share_demand_constr[3,1,2]: - 400 y[1,2] + u[3,1,2] <= 0
 share_demand_constr[3,1,3]: - 400 y[1,3] + u[3,1,3] <= 0
 share_demand_constr[3,1,4]: - 400 y[1,4] + u[3,1,4] <= 0
 share_demand_constr[3,1,5]: - 400 y[1,5] + u[3,1,5] <= 0
 share_demand_constr[4,0,0]: u[4,0,0] <= 0
 share_demand_constr[4,0,1]: u[4,0,1] <= 0
 share_demand_constr[4,0,2]: u[4,0,2] <= 0
 share_demand_constr[4,0,3]: u[4,0,3] <= 0
 share_demand_constr[4,0,4]: u[4,0,4] <= 0
 share_demand_constr[4,0,5]: u[4,0,5] <= 0
 share_demand_constr[4,1,0]: - 400 y[1,0] + u[4,1,0] <= 0
 share_demand_constr[4,1,1]: - 400 y[1,1] + u[4,1,1] <= 0
 share_demand_constr[4,1,2]: - 400 y[1,2] + u[4,1,2] <= 0
 share_demand_constr[4,1,3]: - 400 y[1,3] + u[4,1,3] <= 0
 share_demand_constr[4,1,4]: - 400 y[1,4] + u[4,1,4] <= 0
 share_demand_constr[4,1,5]: - 400 y[1,5] + u[4,1,5] <= 0
 share_demand_constr[5,0,0]: - 400 y[0,0] + u[5,0,0] <= 0
 share_demand_constr[5,0,1]: - 400 y[0,1] + u[5,0,1] <= 0
 share_demand_constr[5,0,2]: - 400 y[0,2] + u[5,0,2] <= 0
 share_demand_constr[5,0,3]: - 400 y[0,3] + u[5,0,3] <= 0
 share_demand_constr[5,0,4]: - 400 y[0,4] + u[5,0,4] <= 0
 share_demand_constr[5,0,5]: - 400 y[0,5] + u[5,0,5] <= 0
 share_demand_constr[5,1,0]: - 800 y[1,0] + u[5,1,0] <= 0
 share_demand_constr[5,1,1]: - 800 y[1,1] + u[5,1,1] <= 0
 share_demand_constr[5,1,2]: - 800 y[1,2] + u[5,1,2] <= 0
 share_demand_constr[5,1,3]: - 800 y[1,3] + u[5,1,3] <= 0
 share_demand_constr[5,1,4]: - 800 y[1,4] + u[5,1,4] <= 0
 share_demand_constr[5,1,5]: - 800 y[1,5] + u[5,1,5] <= 0
Bounds
 u[0,0,0] = 0
 u[0,0,1] = 0
 u[0,0,2] = 0
 u[0,0,3] = 0
 u[0,0,4] = 0
 u[0,0,5] = 0
 u[0,1,0] = 0
 u[0,1,1] = 0
 u[0,1,2] = 0
 u[0,1,3] = 0
 u[0,1,4] = 0
 u[0,1,5] = 0
 u[1,0,0] <= 400
 u[1,0,1] <= 400
 u[1,0,2] <= 400
 u[1,0,3] <= 400
 u[1,0,4] <= 400
 u[1,0,5] <= 400
 u[1,1,0] = 0
 u[1,1,1] = 0
 u[1,1,2] = 0
 u[1,1,3] = 0
 u[1,1,4] = 0
 u[1,1,5] = 0
 u[2,0,0] <= 800
 u[2,0,1] <= 800
 u[2,0,2] <= 800
 u[2,0,3] <= 800
 u[2,0,4] <= 800
 u[2,0,5] <= 800
 u[2,1,0] = 0
 u[2,1,1] = 0
 u[2,1,2] = 0
 u[2,1,3] = 0
 u[2,1,4] = 0
 u[2,1,5] = 0
 u[3,0,0] <= 400
 u[3,0,1] <= 400
 u[3,0,2] <= 400
 u[3,0,3] <= 400
 u[3,0,4] <= 400
 u[3,0,5] <= 400
 u[3,1,0] <= 400
 u[3,1,1] <= 400
 u[3,1,2] <= 400
 u[3,1,3] <= 400
 u[3,1,4] <= 400
 u[3,1,5] <= 400
 u[4,0,0] = 0
 u[4,0,1] = 0
 u[4,0,2] = 0
 u[4,0,3] = 0
 u[4,0,4] = 0
 u[4,0,5] = 0
 u[4,1,0] <= 400
 u[4,1,1] <= 400
 u[4,1,2] <= 400
 u[4,1,3] <= 400
 u[4,1,4] <= 400
 u[4,1,5] <= 400
 u[5,0,0] <= 400
 u[5,0,1] <= 400
 u[5,0,2] <= 400
 u[5,0,3] <= 400
 u[5,0,4] <= 400
 u[5,0,5] <= 400
 u[5,1,0] <= 800
 u[5,1,1] <= 800
 u[5,1,2] <= 800
 u[5,1,3] <= 800
 u[5,1,4] <= 800
 u[5,1,5] <= 800
Binaries
 x[0,0] x[0,1] x[0,2] x[0,3] x[0,4] x[0,5] x[1,0] x[1,1] x[1,2] x[1,3]
 x[1,4] x[1,5] x[2,0] x[2,1] x[2,2] x[2,3] x[2,4] x[2,5] x[3,0] x[3,1]
 x[3,2] x[3,3] x[3,4] x[3,5] x[4,0] x[4,1] x[4,2] x[4,3] x[4,4] x[4,5]
 x[5,0] x[5,1] x[5,2] x[5,3] x[5,4] x[5,5] y[0,0] y[0,1] y[0,2] y[0,3]
 y[0,4] y[0,5] y[1,0] y[1,1] y[1,2] y[1,3] y[1,4] y[1,5]
Generals
 u[0,0,0] u[0,0,1] u[0,0,2] u[0,0,3] u[0,0,4] u[0,0,5] u[0,1,0] u[0,1,1]
 u[0,1,2] u[0,1,3] u[0,1,4] u[0,1,5] u[1,0,0] u[1,0,1] u[1,0,2] u[1,0,3]
 u[1,0,4] u[1,0,5] u[1,1,0] u[1,1,1] u[1,1,2] u[1,1,3] u[1,1,4] u[1,1,5]
 u[2,0,0] u[2,0,1] u[2,0,2] u[2,0,3] u[2,0,4] u[2,0,5] u[2,1,0] u[2,1,1]
 u[2,1,2] u[2,1,3] u[2,1,4] u[2,1,5] u[3,0,0] u[3,0,1] u[3,0,2] u[3,0,3]
 u[3,0,4] u[3,0,5] u[3,1,0] u[3,1,1] u[3,1,2] u[3,1,3] u[3,1,4] u[3,1,5]
 u[4,0,0] u[4,0,1] u[4,0,2] u[4,0,3] u[4,0,4] u[4,0,5] u[4,1,0] u[4,1,1]
 u[4,1,2] u[4,1,3] u[4,1,4] u[4,1,5] u[5,0,0] u[5,0,1] u[5,0,2] u[5,0,3]
 u[5,0,4] u[5,0,5] u[5,1,0] u[5,1,1] u[5,1,2] u[5,1,3] u[5,1,4] u[5,1,5]
End
